 $CONTRL RUNTYP=OPTIMIZE SCFTYP={{ gms.scf }} DFTTYP={{ gms.dft }}
  ICHARG=0 MULT=1 COORD=CART $END
 $STATPT HSSEND=.T. NSTEP=100 $END
 $SCF DIRSCF=.TRUE. $END
 $SYSTEM MWORDS=128 $END
 $BASIS GBASIS=N31 NGAUSS=6 NDFUNC=1 $END
 $DATA
{{ gms.molecule }}
C1 1
{{ gms.coords }}
 $END